examples/compiled_interfaces/AMPL/textbook.in
## DAKOTA INPUT FILE - textbook.in
# derived from $DAKOTA/test/dakota_textbook.in;
# modified to use analysis_driver dakampl.

# This tester populates a test matrix of fork/system vs. synch/asynch
# vs. temporary/named files for the 1 piece interface.

environment,
	  graphics

method,
	dot_mmfd,
	  max_iterations = 50,
	  convergence_tolerance = 1e-4

variables,
	continuous_design = 2
	  initial_point    0.9    1.1
	  upper_bounds     5.8    2.9
	  lower_bounds     0.5   -2.9
	  descriptors      'x1'   'x2'

interface,
	fork					#0,#1,#2,#3
#	system 					#4,#5,#6,#7
#	direct					#8
#	  asynchronous				#2,#3,#6,#7
	  analysis_driver =       'dakampl'
#	  parameters_file=        'tb.in'	#1,#3,#5,#7
#	  results_file=           'tb.out'	#1,#3,#5,#7
#	  file_tag				#3,#7

responses,
	objective_functions = 1
	nonlinear_inequality_constraints = 2
	numerical_gradients
	  method_source dakota
	  interval_type central
	  fd_gradient_step_size = 1.e-4
	no_hessians
